min: 1 x1 + 1 x2 + 1 x3 + 1 x4 + 1 x5 + 1 x6 + 1 x7 + 1 x8 + 1 x9 + 1 x10 + 1 x11 + 1 x12 + 1 x13 + 1 x14 + 1 x15 + 1 x16 + 1 x17 + 1 x18 + 1 x19 + 1 x20 + 1 x21 + 1 x22 + 1 x23 + 1 x24 + 1 x25 + 1 x26 + 1 x27 + 1 x28 + 1 x29 + 1 x30 + 1 x31 + 1 x32 + 1 x33 + 1 x34 + 1 x35 + 1 x36 + 1 x37 + 1 x38 + 1 x39 + 1 x40 + 1 x41 + 1 x42 + 1 x43 + 1 x44 + 1 x45 + 1 x46 + 1 x47 + 1 x48 + 1 x49 + 1 x50 + 1 x51 + 1 x52 + 1 x53 + 1 x54 + 1 x55 + 1 x56 + 1 x57 + 1 x58 + 1 x59 + 1 x60 + 1 x61 + 1 x62 + 1 x63 + 1 x64 + 1 x65 + 1 x66 + 1 x67 + 1 x68 + 1 x69 + 1 x70 + 1 x71 + 1 x72 + 1 x73 + 1 x74 + 1 x75 + 1 x76 + 1 x77 + 1 x78 + 1 x79 + 1 x80 + 1 x81 + 1 x82 + 1 x83 + 1 x84 + 1 x85 + 1 x86 + 1 x87 + 1 x88 + 1 x89 + 1 x90 + 1 x91 + 1 x92 + 1 x93 + 1 x94 + 1 x95 + 1 x96 + 1 x97 + 1 x98 + 1 x99 + 1 x100 + 1 x101 + 1 x102 + 1 x103 + 1 x104 + 1 x105 + 1 x106 + 1 x107 + 1 x108 + 1 x109 + 1 x110 + 1 x111 + 1 x112 + 1 x113 + 1 x114 + 1 x115 + 1 x116 + 1 x117 + 1 x118 + 1 x119 + 1 x120 + 1 x121 + 1 x122 + 1 x123 + 1 x124 + 1 x125 + 1 x126 + 1 x127 + 1 x128 + 1 x129 + 1 x130 + 1 x131 + 1 x132 + 1 x133 + 1 x134 + 1 x135 + 1 x136 + 1 x137 + 1 x138 + 1 x139 + 1 x140 + 1 x141 + 1 x142 + 1 x143 + 1 x144 + 1 x145 + 1 x146 + 1 x147 + 1 x148 + 1 x149 + 1 x150 + 1 x151 + 1 x152 + 1 x153 + 1 x154 + 1 x155 + 1 x156 + 1 x157 + 1 x158 + 1 x159 + 1 x160 + 1 x161 + 1 x162 + 1 x163 + 1 x164 + 1 x165 + 1 x166 + 1 x167 + 1 x168 + 1 x169 + 1 x170 + 1 x171 + 1 x172 + 1 x173 + 1 x174 + 1 x175 + 1 x176 + 1 x177 + 1 x178 + 1 x179 + 1 x180 + 1 x181 + 1 x182 + 1 x183 + 1 x184 + 1 x185 + 1 x186 + 1 x187 + 1 x188 + 1 x189 + 1 x190 + 1 x191 + 1 x192 + 1 x193 + 1 x194 + 1 x195 + 1 x196 + 1 x197 + 1 x198 + 1 x199 + 1 x200;

r1: x93 + x197 + x48 + x177 + x176 >= 1;
r2: x193 + x38 >= 1;
r3: x180 + x67 + x11 >= 1;
r4: x115 + x36 + x137 + x77 + x153 >= 1;
r5: x96 + x99 >= 1;
r6: x40 + x141 + x73 + x64 + x146 + x82 >= 1;
r7: x176 + x7 + x180 + x67 >= 1;
r8: x79 + x81 >= 1;
r9: x111 + x46 + x51 + x145 + x199 + x158 + x121 >= 1;
r10: x152 + x190 + x168 + x54 + x81 >= 1;
r11: x171 + x135 + x33 + x143 + x163 >= 1;
r12: x171 + x95 + x149 + x89 + x26 + x189 >= 1;
r13: x126 + x73 + x197 + x134 + x144 + x6 + x78 + x183 >= 1;
r14: x88 + x144 + x192 + x13 >= 1;
r15: x98 + x67 + x184 + x79 + x114 + x20 + x74 + x195 >= 1;
r16: x161 + x118 + x46 >= 1;
r17: x181 + x24 + x96 + x99 + x120 >= 1;
r18: x48 + x106 + x85 + x143 + x151 + x179 >= 1;
r19: x41 + x19 + x152 + x167 + x146 + x27 >= 1;
r20: x103 + x59 + x74 >= 1;
r21: x121 + x21 >= 1;
r22: x152 + x92 + x114 + x107 + x14 + x36 + x159 >= 1;
r23: x73 + x109 >= 1;
r24: x99 + x185 + x94 + x115 + x172 + x45 >= 1;
r25: x66 + x150 + x182 + x27 >= 1;
r26: x154 >= 1;
r27: x90 + x105 + x200 + x185 + x37 + x119 + x33 + x148 >= 1;
r28: x28 + x69 + x93 >= 1;
r29: x1 + x62 + x155 + x92 + x10 + x29 + x177 + x45 >= 1;
r30: x32 >= 1;
r31: x139 + x71 + x79 >= 1;
r32: x168 + x57 + x49 + x145 + x3 + x47 + x18 >= 1;
r33: x129 + x177 + x38 + x136 + x170 + x159 + x58 + x2 >= 1;
r34: x46 + x45 + x97 + x158 + x103 + x144 >= 1;
r35: x11 + x131 + x79 >= 1;
r36: x73 + x56 >= 1;
r37: x95 + x121 + x22 >= 1;
r38: x30 + x41 + x110 + x50 + x109 + x179 + x120 + x27 >= 1;
r39: x165 + x22 + x171 + x78 + x23 + x51 >= 1;
r40: x191 + x175 + x99 + x65 >= 1;
r41: x4 + x33 + x134 + x124 + x128 >= 1;
r42: x86 + x10 + x31 + x198 + x46 >= 1;
r43: x162 + x60 + x113 + x122 + x172 + x115 + x68 + x58 >= 1;
r44: x9 >= 1;
r45: x192 >= 1;
r46: x66 + x146 + x87 + x109 + x32 + x17 + x54 >= 1;
r47: x73 + x2 + x52 + x34 + x180 + x192 + x25 + x10 >= 1;
r48: x188 + x93 >= 1;
r49: x22 + x161 + x71 + x8 + x186 + x146 >= 1;
r50: x53 >= 1;
r51: x21 + x28 + x18 + x136 >= 1;
r52: x36 + x121 + x165 + x50 >= 1;
r53: x121 + x189 + x119 + x71 + x133 + x179 >= 1;
r54: x129 + x95 + x91 + x142 >= 1;
r55: x162 + x20 + x25 >= 1;
r56: x139 + x68 + x32 >= 1;
r57: x177 + x10 + x105 >= 1;
r58: x82 + x44 + x152 + x63 + x181 + x55 >= 1;
r59: x100 + x7 + x136 >= 1;
r60: x39 + x8 + x11 + x89 >= 1;
r61: x192 + x129 >= 1;
r62: x94 + x161 >= 1;
r63: x66 + x171 + x31 + x117 + x85 >= 1;
r64: x36 + x182 >= 1;
r65: x52 + x137 + x75 + x56 >= 1;
r66: x53 >= 1;
r67: x147 + x38 + x190 + x59 + x4 >= 1;
r68: x124 + x115 + x64 + x11 + x119 + x177 + x153 + x13 >= 1;
r69: x105 + x35 + x124 + x21 + x63 >= 1;
r70: x96 + x95 + x70 + x18 + x31 + x76 + x121 + x11 >= 1;
r71: x159 + x200 + x187 + x129 >= 1;
r72: x119 + x43 + x179 + x160 + x3 + x86 + x35 + x193 >= 1;
r73: x26 + x136 + x66 + x74 + x169 + x122 + x72 + x130 >= 1;
r74: x115 + x85 + x90 + x70 + x10 >= 1;
r75: x79 >= 1;
r76: x173 + x114 + x34 + x87 + x6 + x29 + x12 >= 1;
r77: x143 + x64 + x33 + x68 + x193 + x154 + x34 >= 1;
r78: x199 + x67 + x80 + x47 + x171 + x191 >= 1;
r79: x119 + x89 + x150 >= 1;
r80: x163 + x187 + x25 + x74 >= 1;
r81: x175 + x89 + x67 + x79 + x176 >= 1;
r82: x11 + x194 + x72 + x127 >= 1;
r83: x118 >= 1;
r84: x128 >= 1;
r85: x192 + x88 + x71 + x96 + x67 + x145 >= 1;
r86: x196 + x141 + x45 + x123 + x66 + x193 + x39 + x54 >= 1;
r87: x27 + x86 + x121 + x183 + x46 >= 1;
r88: x52 + x100 + x153 + x23 + x159 + x136 + x61 >= 1;
r89: x8 >= 1;
r90: x4 + x127 + x72 + x99 + x125 + x197 + x160 >= 1;
r91: x148 + x168 + x36 + x197 + x127 + x150 + x188 + x177 >= 1;
r92: x68 + x52 + x147 + x164 + x180 + x78 + x67 >= 1;
r93: x90 >= 1;
r94: x64 + x153 + x10 + x12 >= 1;
r95: x129 + x137 + x75 >= 1;
r96: x92 + x105 >= 1;
r97: x86 + x42 + x75 + x122 + x25 + x40 + x68 + x187 >= 1;
r98: x134 + x37 + x78 + x145 + x12 >= 1;
r99: x9 + x22 + x8 + x15 >= 1;
r100: x189 + x90 + x59 + x71 + x57 + x199 + x69 >= 1;
r101: x5 + x76 + x187 >= 1;
r102: x97 + x134 + x141 + x36 + x107 + x67 + x109 + x185 >= 1;
r103: x198 + x179 + x60 >= 1;
r104: x83 >= 1;
r105: x116 + x75 + x139 + x123 + x58 >= 1;
r106: x138 >= 1;
r107: x85 >= 1;
r108: x157 + x128 + x56 + x39 + x21 + x110 + x26 + x3 >= 1;
r109: x14 + x157 + x91 + x66 + x40 >= 1;
r110: x112 >= 1;
r111: x116 + x147 + x132 + x131 + x115 + x164 >= 1;
r112: x161 + x137 + x129 + x170 >= 1;
r113: x200 + x126 + x66 + x17 + x161 + x58 + x90 >= 1;
r114: x23 + x168 + x119 >= 1;
r115: x183 + x22 + x34 + x113 + x77 >= 1;
r116: x34 + x29 >= 1;
r117: x28 + x91 + x87 + x181 + x140 + x102 >= 1;
r118: x91 + x68 + x100 >= 1;
r119: x184 + x114 >= 1;
r120: x164 + x134 + x72 + x121 + x129 + x57 >= 1;
r121: x1 + x196 >= 1;
r122: x152 >= 1;
r123: x35 + x199 + x179 >= 1;
r124: x19 + x177 + x145 + x105 + x165 + x139 >= 1;
r125: x192 + x149 + x77 + x170 + x151 + x69 + x160 + x196 >= 1;
r126: x48 + x20 + x151 >= 1;
r127: x25 + x167 + x90 >= 1;
r128: x129 + x55 + x60 + x2 + x91 + x145 + x108 >= 1;
r129: x196 + x99 + x135 + x168 + x193 >= 1;
r130: x62 + x15 + x44 + x72 + x82 + x75 >= 1;
r131: x173 + x41 + x86 + x99 + x133 + x87 + x90 >= 1;
r132: x193 + x167 + x111 + x120 + x66 + x192 + x169 + x84 >= 1;
r133: x55 + x32 >= 1;
r134: x75 + x100 + x118 >= 1;
r135: x9 + x166 + x149 + x35 + x37 + x44 >= 1;
r136: x180 + x194 + x175 + x53 + x34 + x129 + x113 + x12 >= 1;
r137: x165 + x179 + x8 + x5 + x126 + x3 + x170 >= 1;
r138: x161 + x59 + x97 + x22 + x163 + x152 + x28 + x104 >= 1;
r139: x192 >= 1;
r140: x109 + x177 + x20 >= 1;
r141: x171 + x113 >= 1;
r142: x79 + x168 + x178 + x136 >= 1;
r143: x149 + x140 + x7 + x146 + x132 + x63 >= 1;
r144: x38 + x68 >= 1;
r145: x159 + x138 + x24 >= 1;
r146: x77 + x70 + x29 + x175 + x192 + x162 + x68 + x139 >= 1;
r147: x169 >= 1;
r148: x192 + x164 + x21 + x93 >= 1;
r149: x29 + x7 + x131 + x104 >= 1;
r150: x167 + x156 + x174 + x48 + x168 + x119 >= 1;
r151: x24 + x76 + x90 + x50 + x200 + x86 >= 1;
r152: x9 + x195 + x60 + x168 + x199 >= 1;
r153: x189 >= 1;
r154: x148 + x61 + x5 + x117 + x26 + x12 + x128 >= 1;
r155: x124 + x37 + x82 + x108 + x157 + x125 + x61 + x134 >= 1;
r156: x75 + x171 + x67 + x94 + x191 + x145 + x22 >= 1;
r157: x88 + x76 + x143 + x155 + x71 + x97 >= 1;
r158: x185 + x150 + x174 + x145 + x82 + x147 >= 1;
r159: x46 >= 1;
r160: x6 + x198 + x123 + x93 + x146 >= 1;
r161: x173 >= 1;
r162: x7 + x171 + x34 >= 1;
r163: x199 + x11 >= 1;
r164: x133 + x149 + x190 + x167 + x97 >= 1;
r165: x166 + x173 >= 1;
r166: x188 + x15 + x89 + x174 + x138 >= 1;
r167: x79 + x175 + x117 >= 1;
r168: x52 + x200 + x32 + x121 + x162 + x58 + x45 >= 1;
r169: x63 + x190 >= 1;
r170: x150 >= 1;
r171: x171 + x60 + x144 + x168 + x125 >= 1;
r172: x200 + x145 + x77 >= 1;
r173: x112 + x54 + x103 + x27 + x53 + x32 >= 1;
r174: x13 >= 1;
r175: x48 + x86 + x147 + x35 + x71 + x134 >= 1;
r176: x183 >= 1;
r177: x60 + x48 + x149 >= 1;
r178: x57 + x117 + x170 + x55 + x191 + x164 >= 1;
r179: x167 + x26 + x181 + x139 >= 1;
r180: x169 + x71 + x137 + x130 + x80 + x123 >= 1;
r181: x74 + x159 + x19 + x140 + x107 + x186 + x172 >= 1;
r182: x187 + x70 + x188 + x197 + x121 + x177 + x157 >= 1;
r183: x147 + x146 + x5 + x97 + x197 + x106 >= 1;
r184: x142 + x155 + x70 + x94 + x158 + x78 + x31 + x177 >= 1;
r185: x89 + x73 + x16 + x29 + x74 >= 1;
r186: x137 + x62 + x158 + x13 + x198 + x183 + x115 + x95 >= 1;
r187: x7 + x142 + x48 + x80 >= 1;
r188: x98 + x76 + x75 + x38 + x72 + x128 >= 1;
r189: x31 + x5 + x199 + x1 + x156 + x56 + x82 + x195 >= 1;
r190: x8 + x152 + x68 + x50 >= 1;
r191: x127 >= 1;
r192: x56 + x188 + x31 + x169 + x23 + x53 + x32 >= 1;
r193: x168 + x80 + x35 + x141 >= 1;
r194: x157 + x79 + x70 + x23 >= 1;
r195: x47 + x151 + x74 + x78 + x180 + x57 + x117 + x106 >= 1;
r196: x197 + x44 + x90 + x50 + x70 >= 1;
r197: x180 + x187 >= 1;
r198: x71 + x31 + x61 + x88 + x73 + x129 >= 1;
r199: x76 >= 1;
r200: x131 + x64 + x77 + x182 + x23 + x55 + x57 + x9 >= 1;
r201: x187 + x174 + x56 + x83 + x89 >= 1;
r202: x168 + x159 + x15 + x133 + x166 + x189 + x36 >= 1;
r203: x61 >= 1;
r204: x156 + x103 + x48 + x24 + x23 + x132 + x11 + x34 >= 1;
r205: x33 + x166 + x117 + x66 >= 1;
r206: x41 + x37 + x174 + x9 >= 1;
r207: x128 + x174 + x20 >= 1;
r208: x87 + x55 + x48 + x69 + x111 + x188 >= 1;
r209: x78 >= 1;
r210: x74 >= 1;
r211: x179 + x100 + x147 + x21 + x145 + x136 >= 1;
r212: x182 + x16 + x111 + x118 + x161 + x137 + x124 + x60 >= 1;
r213: x33 + x7 + x86 + x118 >= 1;
r214: x14 + x179 + x78 + x175 + x75 >= 1;
r215: x26 + x147 + x141 + x76 >= 1;
r216: x186 >= 1;
r217: x149 + x6 + x111 + x37 + x71 >= 1;
r218: x135 + x59 + x196 >= 1;
r219: x133 + x185 + x3 + x191 >= 1;
r220: x80 + x98 + x169 + x38 + x163 + x130 + x141 >= 1;
r221: x32 + x98 + x29 + x86 + x21 + x65 >= 1;
r222: x99 + x78 + x13 + x80 + x15 + x65 + x141 + x124 >= 1;
r223: x138 + x180 + x104 + x183 + x89 + x161 + x173 + x150 >= 1;
r224: x117 + x19 + x9 + x65 + x152 + x169 + x67 >= 1;
r225: x38 + x106 + x50 + x97 + x73 + x104 >= 1;
r226: x2 + x47 + x191 + x56 + x77 + x1 + x27 >= 1;
r227: x150 + x106 + x141 + x101 + x89 + x95 + x12 >= 1;
r228: x197 + x182 >= 1;
r229: x127 >= 1;
r230: x81 + x170 + x17 >= 1;
r231: x128 >= 1;
r232: x161 + x114 >= 1;
r233: x182 >= 1;
r234: x158 >= 1;
r235: x88 + x63 + x109 >= 1;
r236: x181 + x22 + x196 + x30 + x46 + x8 + x106 + x102 >= 1;
r237: x136 + x12 + x99 + x15 >= 1;
r238: x101 + x133 + x49 + x182 + x88 + x177 + x75 + x147 >= 1;
r239: x163 + x11 + x114 + x70 >= 1;
r240: x168 + x140 + x116 + x22 + x115 + x5 + x13 + x80 >= 1;
r241: x43 + x65 + x117 + x37 + x161 + x200 + x22 >= 1;
r242: x132 + x76 + x153 + x159 + x16 + x24 + x135 >= 1;
r243: x113 + x49 + x164 + x187 + x99 + x107 >= 1;
r244: x99 + x129 + x79 + x183 + x30 + x117 >= 1;
r245: x26 + x144 >= 1;
r246: x58 + x125 + x184 + x20 + x100 + x85 >= 1;
r247: x147 + x46 + x71 >= 1;
r248: x33 + x178 + x79 + x6 + x55 + x113 + x63 >= 1;
r249: x157 + x85 + x26 + x35 >= 1;
r250: x118 + x57 + x86 + x112 + x73 + x28 + x55 >= 1;
r251: x124 >= 1;
r252: x165 + x65 + x66 + x52 >= 1;
r253: x66 + x48 + x199 + x33 + x10 >= 1;
r254: x29 + x113 + x65 + x142 + x111 + x71 >= 1;
r255: x94 + x155 + x97 + x140 + x67 >= 1;
r256: x122 >= 1;
r257: x84 + x94 + x195 + x106 >= 1;
r258: x5 + x24 + x191 + x132 + x153 >= 1;
r259: x196 + x172 + x101 + x186 + x90 + x3 + x66 + x143 >= 1;
r260: x66 + x49 + x138 + x197 + x134 + x43 + x186 >= 1;
r261: x70 + x89 + x4 + x87 + x10 + x96 + x112 + x80 >= 1;
r262: x172 + x58 >= 1;
r263: x58 + x37 >= 1;
r264: x52 + x29 + x190 + x9 + x34 >= 1;
r265: x37 + x50 + x121 + x145 + x63 + x188 >= 1;
r266: x139 + x112 + x163 >= 1;
r267: x35 + x143 + x165 + x164 + x45 + x78 >= 1;
r268: x193 + x142 + x166 + x72 + x192 + x15 >= 1;
r269: x80 >= 1;
r270: x133 + x33 + x172 + x176 + x18 >= 1;
r271: x151 + x179 >= 1;
r272: x3 >= 1;
r273: x48 + x117 + x179 >= 1;
r274: x51 + x44 + x92 + x143 + x137 + x30 + x176 >= 1;
r275: x10 >= 1;
r276: x45 >= 1;
r277: x130 + x174 + x152 + x14 >= 1;
r278: x143 + x47 + x90 + x1 + x73 + x182 + x59 >= 1;
r279: x14 + x30 + x105 + x159 + x96 + x140 + x84 >= 1;
r280: x40 + x90 + x184 >= 1;
r281: x178 + x156 + x35 + x142 + x72 >= 1;
r282: x2 + x43 + x76 >= 1;
r283: x11 + x54 + x190 >= 1;
r284: x29 + x54 + x69 + x32 + x118 + x148 >= 1;
r285: x193 + x160 + x200 + x88 >= 1;
r286: x195 >= 1;
r287: x118 + x115 >= 1;
r288: x173 + x140 + x150 + x190 + x108 >= 1;
r289: x129 + x99 + x81 + x131 + x177 + x133 + x147 + x175 >= 1;
r290: x131 + x175 + x169 + x199 + x92 + x12 + x141 + x107 >= 1;
r291: x32 + x166 + x184 + x97 + x90 >= 1;
r292: x24 >= 1;
r293: x125 >= 1;
r294: x62 + x196 >= 1;
r295: x53 + x158 + x111 + x101 >= 1;
r296: x56 + x158 + x6 >= 1;
r297: x17 + x60 + x200 + x131 + x55 + x76 + x133 + x29 >= 1;
r298: x38 + x83 + x29 >= 1;
r299: x108 + x9 + x185 + x154 + x83 + x157 + x146 >= 1;
r300: x194 + x74 + x186 + x169 + x192 + x132 >= 1;
r301: x105 + x111 + x126 >= 1;
r302: x165 + x21 + x122 + x19 + x196 + x44 + x129 + x192 >= 1;
r303: x180 + x191 + x101 + x74 + x65 + x195 >= 1;
r304: x75 + x41 + x127 + x49 + x44 + x187 + x184 + x108 >= 1;
r305: x75 + x91 + x120 >= 1;
r306: x121 + x34 + x15 + x29 + x96 + x85 + x46 + x58 >= 1;
r307: x152 + x178 + x59 >= 1;
r308: x67 >= 1;
r309: x36 + x99 + x91 + x110 >= 1;
r310: x19 + x12 + x141 + x186 >= 1;
r311: x143 + x166 + x159 + x193 + x197 + x175 >= 1;
r312: x167 + x161 + x15 + x192 + x35 >= 1;
r313: x19 + x177 + x84 + x141 + x107 + x56 + x183 >= 1;
r314: x86 + x123 + x150 + x18 + x93 + x2 + x115 >= 1;
r315: x107 + x55 + x123 + x142 + x192 + x84 + x196 >= 1;
r316: x82 + x7 + x188 + x178 >= 1;
r317: x9 + x79 + x189 + x146 >= 1;
r318: x167 + x69 >= 1;
r319: x160 >= 1;
r320: x19 >= 1;
r321: x94 + x147 + x197 + x104 + x25 + x106 + x192 >= 1;
r322: x122 + x3 >= 1;
r323: x137 + x89 + x3 >= 1;
r324: x56 + x105 >= 1;
r325: x5 + x36 + x143 + x55 + x9 + x24 >= 1;
r326: x115 >= 1;
r327: x9 + x94 + x4 + x138 + x170 + x110 + x20 + x29 >= 1;
r328: x74 + x49 + x158 + x72 >= 1;
r329: x190 + x162 + x76 + x192 >= 1;
r330: x79 >= 1;
r331: x141 + x133 + x14 + x87 + x88 + x123 + x55 + x31 >= 1;
r332: x65 + x26 + x162 + x170 + x93 + x149 + x42 + x87 >= 1;
r333: x36 >= 1;
r334: x151 + x40 + x41 + x42 + x168 + x106 + x81 >= 1;
r335: x59 + x17 + x63 + x94 + x182 >= 1;
r336: x135 + x18 >= 1;
r337: x23 + x50 + x151 + x125 + x162 >= 1;
r338: x7 + x77 + x63 + x94 + x103 >= 1;
r339: x95 + x12 + x82 + x176 >= 1;
r340: x60 + x159 >= 1;
r341: x56 + x171 + x109 + x149 + x99 + x47 >= 1;
r342: x41 + x192 + x135 + x161 + x174 + x45 >= 1;
r343: x144 + x25 + x8 + x102 + x64 + x48 + x56 >= 1;
r344: x78 + x174 >= 1;
r345: x192 + x26 + x153 >= 1;
r346: x39 + x190 + x66 + x30 + x8 >= 1;
r347: x52 + x105 + x7 + x128 + x180 + x190 + x136 + x93 >= 1;
r348: x10 + x187 + x163 + x61 + x198 + x54 >= 1;
r349: x38 + x31 + x134 >= 1;
r350: x120 + x144 + x18 + x92 + x53 + x30 + x28 + x89 >= 1;
r351: x12 + x136 + x94 >= 1;
r352: x60 + x7 + x150 + x181 >= 1;
r353: x118 + x62 + x25 + x32 >= 1;
r354: x182 + x191 + x20 + x115 + x183 + x80 + x134 + x176 >= 1;
r355: x143 + x156 + x144 + x55 + x164 >= 1;
r356: x105 + x9 + x29 + x192 + x197 >= 1;
r357: x48 + x69 + x134 + x106 + x88 + x75 >= 1;
r358: x158 + x3 + x27 + x35 + x137 >= 1;
r359: x144 + x43 + x114 >= 1;
r360: x21 >= 1;
r361: x32 + x65 >= 1;
r362: x104 + x153 + x176 + x165 >= 1;
r363: x126 + x69 + x80 + x84 + x77 + x114 + x63 >= 1;
r364: x101 + x171 >= 1;
r365: x6 + x152 + x150 + x192 >= 1;
r366: x64 + x91 + x40 + x139 + x18 + x153 + x173 >= 1;
r367: x42 + x3 + x89 + x175 >= 1;
r368: x185 + x60 >= 1;
r369: x167 + x197 + x172 + x106 + x26 + x110 + x143 + x101 >= 1;
r370: x170 + x108 + x159 + x45 + x66 + x110 >= 1;
r371: x2 + x133 + x131 + x141 + x65 + x94 >= 1;
r372: x197 + x42 >= 1;
r373: x141 + x10 >= 1;
r374: x127 + x187 + x53 + x95 + x21 >= 1;
r375: x30 + x118 + x19 + x185 >= 1;
r376: x33 + x125 + x120 + x113 + x127 + x119 + x122 + x171 >= 1;
r377: x175 + x158 + x200 + x32 + x139 >= 1;
r378: x180 + x57 + x82 + x84 + x96 >= 1;
r379: x140 + x28 + x192 >= 1;
r380: x171 + x178 + x47 + x12 >= 1;
r381: x48 + x154 >= 1;
r382: x55 >= 1;
r383: x93 + x113 + x124 + x106 + x157 + x85 + x121 >= 1;
r384: x38 + x196 >= 1;
r385: x179 + x69 + x107 + x9 + x188 + x15 + x35 + x8 >= 1;
r386: x157 + x169 + x54 + x2 + x37 + x158 + x180 >= 1;
r387: x35 + x50 + x146 + x171 + x48 >= 1;
r388: x116 + x123 + x47 + x74 >= 1;
r389: x21 + x131 >= 1;
r390: x92 + x137 + x82 + x130 + x98 + x136 + x65 + x23 >= 1;
r391: x175 + x78 + x138 + x18 + x140 + x115 + x63 >= 1;
r392: x23 + x93 + x180 + x67 + x78 + x111 + x32 >= 1;
r393: x39 + x152 + x75 + x28 + x153 >= 1;
r394: x75 + x150 + x29 + x179 + x109 + x107 + x18 >= 1;
r395: x156 >= 1;
r396: x36 + x106 + x19 + x163 + x57 + x165 + x114 >= 1;
r397: x199 + x23 + x47 >= 1;
r398: x110 >= 1;
r399: x62 + x47 >= 1;
r400: x186 + x90 + x141 + x87 + x142 >= 1;
r401: x142 + x171 + x24 >= 1;
r402: x11 + x120 + x36 + x196 >= 1;
r403: x109 + x47 + x33 + x66 + x25 + x137 + x152 >= 1;
r404: x180 + x171 + x105 + x70 >= 1;
r405: x59 + x168 + x67 + x117 >= 1;
r406: x157 + x55 + x162 + x169 >= 1;
r407: x107 + x121 >= 1;
r408: x42 + x183 + x86 + x104 >= 1;
r409: x104 + x110 + x14 + x189 + x174 + x134 + x194 + x121 >= 1;
r410: x33 + x175 >= 1;
r411: x117 + x111 + x178 + x162 >= 1;
r412: x137 + x90 + x14 + x80 + x140 >= 1;
r413: x154 + x19 + x31 + x74 >= 1;
r414: x128 + x6 + x143 + x147 >= 1;
r415: x153 + x113 + x31 + x44 >= 1;
r416: x129 + x47 + x39 >= 1;
r417: x137 + x81 + x145 >= 1;
r418: x5 + x92 + x195 + x125 + x98 + x19 + x6 + x110 >= 1;
r419: x56 + x151 >= 1;
r420: x41 + x36 + x127 >= 1;
r421: x51 + x192 + x174 >= 1;
r422: x32 + x73 + x54 + x41 + x1 + x163 >= 1;
r423: x54 + x104 + x97 + x22 + x161 + x40 >= 1;
r424: x186 >= 1;
r425: x40 + x94 + x28 + x147 + x162 + x38 >= 1;
r426: x128 + x127 + x133 + x167 + x85 + x186 + x42 >= 1;
r427: x86 + x112 + x46 + x16 + x191 + x153 >= 1;
r428: x85 + x86 >= 1;
r429: x46 + x24 + x20 + x16 + x90 >= 1;
r430: x100 >= 1;
r431: x28 + x36 + x126 + x155 + x103 + x83 + x8 + x191 >= 1;
r432: x93 + x196 + x70 + x172 + x69 >= 1;
r433: x165 + x109 >= 1;
r434: x56 + x108 + x146 + x186 + x52 + x98 >= 1;
r435: x33 + x169 + x147 >= 1;
r436: x188 >= 1;
r437: x169 + x199 + x91 + x9 + x185 >= 1;
r438: x25 >= 1;
r439: x137 + x64 + x149 + x85 + x75 + x107 + x22 + x89 >= 1;
r440: x43 + x88 + x19 + x98 + x141 + x165 >= 1;
r441: x112 + x55 + x12 + x132 >= 1;
r442: x139 >= 1;
r443: x21 + x152 >= 1;
r444: x95 + x78 >= 1;
r445: x149 >= 1;
r446: x195 + x68 + x6 + x90 + x45 + x2 + x100 >= 1;
r447: x90 + x126 + x132 + x22 + x80 + x31 + x79 + x48 >= 1;
r448: x143 + x133 + x37 >= 1;
r449: x119 >= 1;
r450: x184 + x120 >= 1;
r451: x59 + x179 + x191 + x188 + x110 >= 1;
r452: x21 + x11 + x76 + x126 + x33 + x172 + x57 + x35 >= 1;
r453: x144 + x136 >= 1;
r454: x177 + x29 >= 1;
r455: x29 + x20 + x23 >= 1;
r456: x99 + x137 + x142 >= 1;
r457: x164 + x56 + x96 + x138 >= 1;
r458: x119 + x33 + x98 + x40 + x50 + x72 + x163 + x117 >= 1;
r459: x29 + x66 + x150 >= 1;
r460: x7 + x100 + x41 + x48 + x104 >= 1;
r461: x176 + x145 + x108 + x20 + x101 + x33 + x132 >= 1;
r462: x82 + x169 + x17 + x182 >= 1;
r463: x56 + x46 + x134 + x180 >= 1;
r464: x99 >= 1;
r465: x172 >= 1;
r466: x139 + x22 + x104 >= 1;
r467: x174 + x74 + x103 + x169 + x122 + x80 + x182 + x200 >= 1;
r468: x175 + x13 + x65 + x78 + x96 >= 1;
r469: x154 + x47 + x8 + x14 + x147 + x63 + x62 + x111 >= 1;
r470: x127 + x135 + x189 + x133 + x156 + x122 >= 1;
r471: x130 >= 1;
r472: x145 + x80 + x108 + x194 + x175 + x146 >= 1;
r473: x114 + x74 + x148 + x199 >= 1;
r474: x13 + x119 >= 1;
r475: x67 >= 1;
r476: x28 + x178 + x145 + x138 + x109 + x168 + x110 >= 1;
r477: x55 + x112 + x12 + x153 >= 1;
r478: x5 >= 1;
r479: x101 + x138 + x118 >= 1;
r480: x156 + x179 + x61 + x105 + x193 + x110 + x78 + x161 >= 1;
r481: x14 + x192 + x77 + x121 + x34 + x146 + x24 >= 1;
r482: x104 + x192 >= 1;
r483: x11 + x89 + x72 + x70 + x173 + x44 >= 1;
r484: x171 + x72 + x123 + x17 + x119 + x8 >= 1;
r485: x81 + x28 + x181 + x133 + x3 >= 1;
r486: x96 + x187 + x13 + x179 + x177 + x122 + x95 + x172 >= 1;
r487: x44 >= 1;
r488: x178 + x95 + x156 >= 1;
r489: x53 + x19 + x123 + x37 + x51 + x43 >= 1;
r490: x118 >= 1;
r491: x42 + x105 + x28 + x142 + x64 + x172 + x181 >= 1;
r492: x134 + x126 + x163 + x79 + x113 >= 1;
r493: x29 + x120 + x92 + x160 >= 1;
r494: x80 + x40 + x184 >= 1;
r495: x184 + x168 + x22 + x179 + x77 + x173 >= 1;
r496: x101 + x72 + x191 + x73 + x27 >= 1;
r497: x176 >= 1;
r498: x129 + x69 + x170 >= 1;
r499: x191 + x76 + x182 + x151 + x92 + x23 + x77 + x52 >= 1;
r500: x97 + x46 + x70 + x128 + x180 + x169 >= 1;
r501: x141 + x168 + x115 + x113 + x47 + x93 >= 1;
r502: x130 + x197 + x98 + x199 + x105 + x129 + x142 >= 1;
r503: x27 + x114 + x107 >= 1;
r504: x182 + x176 + x175 + x119 + x112 + x116 + x59 >= 1;
r505: x82 + x7 >= 1;
r506: x134 + x40 >= 1;
r507: x192 >= 1;
r508: x21 + x181 + x161 >= 1;
r509: x147 + x58 + x9 + x170 + x134 + x117 + x136 >= 1;
r510: x108 + x62 + x163 + x3 >= 1;
r511: x39 + x8 + x103 >= 1;
r512: x148 + x151 >= 1;
r513: x80 + x159 >= 1;
r514: x124 + x156 + x194 + x148 + x48 + x9 + x60 >= 1;
r515: x43 + x164 + x47 + x41 + x117 + x84 >= 1;
r516: x199 >= 1;
r517: x58 + x55 + x87 + x52 + x96 + x95 >= 1;
r518: x157 + x4 + x24 + x40 + x93 + x27 >= 1;
r519: x90 + x13 >= 1;
r520: x14 >= 1;
r521: x90 + x63 + x89 + x194 + x13 + x33 + x71 >= 1;
r522: x160 + x135 + x137 + x60 + x177 + x62 + x171 >= 1;
r523: x76 >= 1;
r524: x75 + x76 + x23 + x25 + x14 + x97 + x37 + x111 >= 1;
r525: x171 + x26 + x68 + x144 + x30 + x46 >= 1;
r526: x176 + x180 + x59 >= 1;
r527: x12 + x9 + x45 + x61 + x196 + x69 >= 1;
r528: x54 + x64 + x159 + x174 + x59 + x68 + x94 + x44 >= 1;
r529: x112 + x117 + x46 + x4 + x181 + x85 + x159 + x56 >= 1;
r530: x177 + x64 + x108 + x154 + x44 + x47 + x30 >= 1;
r531: x111 + x138 + x135 + x163 + x200 >= 1;
r532: x95 + x169 + x57 + x154 + x194 >= 1;
r533: x197 + x152 + x67 + x70 + x2 >= 1;
r534: x85 + x83 + x63 + x173 >= 1;
r535: x47 >= 1;
r536: x172 + x162 >= 1;
r537: x10 >= 1;
r538: x155 + x9 + x69 + x169 + x135 + x173 + x189 + x49 >= 1;
r539: x199 >= 1;
r540: x26 + x130 + x16 + x66 + x35 >= 1;
r541: x146 + x6 + x47 + x150 + x140 + x96 >= 1;
r542: x18 + x26 >= 1;
r543: x200 + x57 >= 1;
r544: x43 + x194 + x82 + x99 + x191 + x170 + x166 >= 1;
r545: x121 + x80 + x74 + x128 + x85 + x43 >= 1;
r546: x70 + x100 + x42 + x179 + x151 + x185 + x109 >= 1;
r547: x182 + x80 + x52 + x137 + x128 + x174 + x87 + x61 >= 1;
r548: x101 >= 1;
r549: x145 + x185 + x48 >= 1;
r550: x142 + x134 + x30 + x59 + x93 >= 1;
r551: x61 + x104 >= 1;
r552: x74 + x20 + x21 + x154 + x151 + x60 + x179 + x171 >= 1;
r553: x200 + x24 + x6 + x71 >= 1;
r554: x56 + x67 + x80 + x81 >= 1;
r555: x16 + x191 + x126 + x92 + x190 >= 1;
r556: x175 + x22 + x159 + x101 >= 1;
r557: x76 + x15 + x65 + x152 + x86 + x89 + x5 >= 1;
r558: x102 + x194 + x122 + x62 >= 1;
r559: x172 + x10 + x124 + x44 >= 1;
r560: x16 + x72 + x118 + x174 + x40 >= 1;
r561: x82 + x184 + x93 + x146 >= 1;
r562: x103 + x200 + x5 + x40 + x6 + x56 + x79 >= 1;
r563: x156 >= 1;
r564: x39 >= 1;
r565: x105 + x108 + x132 + x60 >= 1;
r566: x188 + x148 >= 1;
r567: x175 + x47 + x172 + x95 + x6 + x31 >= 1;
r568: x68 + x14 + x155 + x74 + x43 + x173 + x133 + x199 >= 1;
r569: x127 >= 1;
r570: x200 >= 1;
r571: x86 + x50 >= 1;
r572: x70 + x84 >= 1;
r573: x85 >= 1;
r574: x53 + x87 >= 1;
r575: x57 + x59 >= 1;
r576: x130 >= 1;
r577: x171 + x70 >= 1;
r578: x130 + x136 + x85 + x148 + x27 + x152 + x6 >= 1;
r579: x106 + x131 + x107 + x101 + x123 + x94 >= 1;
r580: x54 + x199 + x55 + x62 + x191 + x172 >= 1;
r581: x87 + x57 + x27 + x192 + x147 + x167 + x10 >= 1;
r582: x171 + x149 + x109 + x200 + x115 + x198 + x162 + x177 >= 1;
r583: x158 >= 1;
r584: x36 + x41 + x177 + x15 + x171 + x155 + x152 >= 1;
r585: x22 + x9 + x122 + x73 + x15 >= 1;
r586: x3 >= 1;
r587: x57 + x174 + x136 + x197 + x139 >= 1;
r588: x72 + x27 + x145 + x50 + x21 + x152 >= 1;
r589: x191 + x33 + x73 + x25 + x133 + x170 + x3 + x103 >= 1;
r590: x4 + x117 + x191 >= 1;
r591: x158 + x141 + x107 >= 1;
r592: x29 + x11 + x49 + x168 + x24 + x166 + x84 >= 1;
r593: x3 + x144 + x176 + x42 + x103 + x131 + x142 >= 1;
r594: x171 + x191 >= 1;
r595: x44 + x146 + x48 + x67 + x127 + x150 + x166 + x182 >= 1;
r596: x106 + x180 >= 1;
r597: x61 >= 1;
r598: x173 + x29 >= 1;
r599: x36 + x65 + x146 + x197 + x192 + x109 + x138 + x127 >= 1;
r600: x44 + x189 + x151 + x154 >= 1;
r601: x155 + x16 + x92 + x97 + x101 + x111 + x10 >= 1;
r602: x177 + x126 >= 1;
r603: x73 + x171 + x175 + x10 >= 1;
r604: x188 + x107 >= 1;
r605: x22 + x142 >= 1;
r606: x142 >= 1;
r607: x119 + x130 + x31 >= 1;
r608: x163 >= 1;
r609: x27 + x168 + x137 + x65 >= 1;
r610: x152 >= 1;
r611: x188 + x93 + x178 + x19 + x114 + x128 >= 1;
r612: x66 + x195 + x116 + x65 + x23 >= 1;
r613: x44 + x139 >= 1;
r614: x151 + x4 >= 1;
r615: x69 + x95 + x199 + x156 + x144 + x2 + x18 + x197 >= 1;
r616: x156 + x155 + x91 + x112 + x198 + x24 + x1 + x166 >= 1;
r617: x183 + x143 + x75 + x112 + x157 >= 1;
r618: x162 >= 1;
r619: x174 + x94 + x25 + x17 + x107 + x162 + x73 + x164 >= 1;
r620: x151 + x190 + x167 + x45 + x19 + x158 >= 1;
r621: x141 + x39 + x142 + x200 + x164 + x10 + x106 >= 1;
r622: x85 >= 1;
r623: x168 + x74 + x163 + x22 + x110 + x125 + x152 + x75 >= 1;
r624: x129 + x125 + x158 + x62 + x191 + x99 + x175 >= 1;
r625: x119 + x22 + x14 >= 1;
r626: x165 + x185 + x32 + x141 + x184 + x12 >= 1;
r627: x165 + x56 + x178 >= 1;
r628: x58 + x114 + x41 >= 1;
r629: x93 + x9 + x33 + x76 + x25 + x22 + x14 + x146 >= 1;
r630: x18 + x190 >= 1;
r631: x49 + x133 + x150 + x68 + x165 + x25 >= 1;
r632: x2 + x142 + x163 + x150 + x20 + x100 >= 1;
r633: x1 + x100 + x68 >= 1;
r634: x56 + x102 + x87 >= 1;
r635: x9 + x189 + x141 >= 1;
r636: x136 + x82 + x71 + x191 + x159 + x109 + x80 >= 1;
r637: x74 + x104 + x93 + x9 + x170 + x174 + x37 >= 1;
r638: x107 + x36 + x78 + x127 + x19 >= 1;
r639: x109 + x88 + x17 + x97 + x110 + x123 + x75 >= 1;
r640: x21 + x61 + x159 + x187 >= 1;
r641: x33 + x73 >= 1;
r642: x95 + x152 + x16 + x103 + x63 + x141 >= 1;
r643: x1 + x147 + x105 + x93 + x197 + x178 >= 1;
r644: x29 + x158 + x44 + x190 >= 1;
r645: x140 + x169 + x34 + x92 + x77 >= 1;
r646: x73 + x72 + x141 + x174 + x148 + x172 + x19 >= 1;
r647: x167 + x44 + x181 + x176 + x127 + x31 + x50 >= 1;
r648: x200 + x76 + x12 >= 1;
r649: x39 + x190 + x169 + x49 >= 1;
r650: x79 + x108 + x83 + x60 + x54 + x6 >= 1;
r651: x99 + x109 + x119 + x138 + x18 >= 1;
r652: x197 + x99 + x88 + x152 + x116 >= 1;
r653: x95 + x1 + x75 + x163 >= 1;
r654: x200 + x143 + x125 >= 1;
r655: x69 + x114 + x105 + x161 + x10 + x51 >= 1;
r656: x74 + x93 + x19 + x182 + x27 >= 1;
r657: x32 + x135 + x143 + x161 + x99 + x131 >= 1;
r658: x92 + x61 + x157 + x89 + x170 + x136 + x180 + x124 >= 1;
r659: x105 + x156 + x58 + x90 >= 1;
r660: x200 + x103 >= 1;
r661: x132 + x14 + x104 + x105 + x183 >= 1;
r662: x19 + x165 + x200 + x149 + x156 + x100 + x32 + x72 >= 1;
r663: x96 + x48 + x58 + x34 + x20 + x128 + x92 + x21 >= 1;
r664: x154 >= 1;
r665: x48 + x142 + x164 + x95 + x193 + x152 >= 1;
r666: x16 + x99 + x177 + x10 + x120 + x64 + x138 >= 1;
r667: x14 + x170 + x193 >= 1;
r668: x166 + x107 + x175 + x133 + x162 + x17 >= 1;
r669: x87 >= 1;
r670: x124 + x16 + x141 + x94 + x149 + x113 + x130 >= 1;
r671: x103 + x12 + x129 + x53 + x192 + x120 + x193 >= 1;
r672: x39 + x183 + x157 >= 1;
r673: x183 + x23 + x1 + x159 + x165 + x59 + x170 >= 1;
r674: x54 + x33 + x79 + x171 + x193 + x200 + x91 >= 1;
r675: x154 + x193 + x6 + x156 + x64 + x93 >= 1;
r676: x194 + x186 >= 1;
r677: x187 + x56 + x60 + x146 + x150 + x51 + x92 >= 1;
r678: x13 + x171 >= 1;
r679: x68 + x32 + x47 + x134 + x79 >= 1;
r680: x143 + x72 + x189 + x199 + x161 + x124 >= 1;
r681: x57 + x98 + x124 >= 1;
r682: x138 + x191 + x53 >= 1;
r683: x26 + x25 + x104 + x194 + x112 >= 1;
r684: x63 + x178 + x167 + x169 + x69 >= 1;
r685: x123 + x86 + x196 + x189 + x152 + x24 + x135 >= 1;
r686: x125 >= 1;
r687: x102 + x37 + x110 >= 1;
r688: x87 + x116 + x42 + x102 >= 1;
r689: x31 + x184 + x73 + x48 >= 1;
r690: x100 + x127 + x19 + x11 + x198 + x30 + x78 + x190 >= 1;
r691: x86 + x151 + x85 + x128 + x143 + x83 + x69 + x81 >= 1;
r692: x159 + x74 + x130 + x113 >= 1;
r693: x46 >= 1;
r694: x177 + x113 + x155 + x190 + x136 + x58 + x70 + x33 >= 1;
r695: x168 + x141 + x197 + x38 >= 1;
r696: x81 + x83 >= 1;
r697: x20 + x116 + x52 + x171 + x38 + x49 + x138 + x99 >= 1;
r698: x21 + x15 + x73 + x56 + x36 + x135 + x106 + x144 >= 1;
r699: x128 + x155 + x85 + x4 + x158 + x72 + x195 + x164 >= 1;
r700: x99 + x95 + x165 + x85 + x193 + x62 + x78 >= 1;
r701: x126 + x165 >= 1;
r702: x167 + x113 + x183 + x189 + x164 + x95 + x77 >= 1;
r703: x19 + x138 + x114 + x46 + x59 + x128 + x161 >= 1;
r704: x193 + x34 + x148 >= 1;
r705: x185 + x172 + x55 + x147 + x186 >= 1;
r706: x60 + x197 >= 1;
r707: x115 + x144 + x124 + x192 + x128 + x100 + x121 >= 1;
r708: x119 + x112 + x185 + x55 + x84 + x12 + x140 >= 1;
r709: x48 + x92 + x10 + x183 >= 1;
r710: x74 + x100 >= 1;
r711: x146 + x59 + x159 + x37 + x89 >= 1;
r712: x43 >= 1;
r713: x28 + x60 + x133 + x149 + x99 >= 1;
r714: x53 + x130 + x41 + x162 >= 1;
r715: x109 + x126 + x25 + x124 >= 1;
r716: x68 + x195 + x44 + x145 + x43 >= 1;
r717: x191 + x74 + x97 >= 1;
r718: x187 + x21 + x121 + x128 + x181 + x20 + x80 + x44 >= 1;
r719: x152 + x166 + x128 + x176 + x12 + x119 >= 1;
r720: x198 + x73 + x26 + x21 + x150 + x97 + x127 + x177 >= 1;
r721: x125 + x76 >= 1;
r722: x78 + x103 + x58 + x15 + x53 >= 1;
r723: x89 + x118 + x197 + x152 + x93 >= 1;
r724: x156 + x164 + x103 + x66 + x123 + x77 + x155 >= 1;
r725: x151 + x100 >= 1;
r726: x44 + x157 + x14 + x184 + x57 + x83 + x106 >= 1;
r727: x197 + x30 + x129 + x75 >= 1;
r728: x183 + x62 + x114 + x79 + x169 + x107 + x2 >= 1;
r729: x107 + x160 + x181 + x54 + x119 + x112 >= 1;
r730: x110 + x70 + x46 + x17 + x177 >= 1;
r731: x2 + x160 + x73 + x27 >= 1;
r732: x52 + x125 + x154 + x38 + x139 >= 1;
r733: x32 >= 1;
r734: x197 >= 1;
r735: x47 + x188 >= 1;
r736: x178 + x10 + x140 >= 1;
r737: x26 + x87 + x54 + x16 >= 1;
r738: x65 + x121 + x156 + x88 + x70 >= 1;
r739: x184 >= 1;
r740: x162 + x178 + x27 + x70 >= 1;
r741: x181 + x31 + x148 + x170 + x83 + x89 >= 1;
r742: x200 + x68 + x10 + x72 + x144 + x106 + x134 >= 1;
r743: x15 + x114 + x123 + x74 + x130 >= 1;
r744: x158 + x187 >= 1;
r745: x136 + x162 + x36 + x50 + x86 + x47 + x182 + x48 >= 1;
r746: x30 + x108 >= 1;
r747: x45 + x86 + x98 >= 1;
r748: x168 + x57 + x106 + x165 + x29 + x162 + x78 + x151 >= 1;
r749: x102 + x179 >= 1;
r750: x128 + x118 >= 1;
r751: x118 + x89 + x105 >= 1;
r752: x85 + x133 + x162 + x80 >= 1;
r753: x5 + x18 + x106 + x43 + x110 >= 1;
r754: x83 + x173 + x180 + x72 + x107 + x38 + x131 >= 1;
r755: x86 >= 1;
r756: x77 + x142 + x92 + x187 + x150 >= 1;
r757: x26 + x1 >= 1;
r758: x76 + x85 + x66 + x34 >= 1;
r759: x190 + x93 >= 1;
r760: x133 + x126 + x43 + x111 + x99 + x7 + x117 + x33 >= 1;
r761: x112 >= 1;
r762: x131 + x76 + x190 + x58 >= 1;
r763: x177 + x113 + x157 + x48 + x179 + x195 >= 1;
r764: x99 + x49 + x180 + x177 + x186 + x89 + x124 + x192 >= 1;
r765: x37 + x128 + x38 + x22 + x144 >= 1;
r766: x104 + x191 >= 1;
r767: x121 + x115 + x61 + x98 >= 1;
r768: x32 + x101 + x2 + x82 + x153 >= 1;
r769: x107 + x109 + x115 + x44 + x148 + x157 >= 1;
r770: x72 + x48 + x85 + x94 + x98 + x119 >= 1;
r771: x158 >= 1;
r772: x56 + x112 + x6 + x186 + x195 + x75 + x148 >= 1;
r773: x62 + x114 + x184 + x42 + x111 + x152 + x164 >= 1;
r774: x52 + x144 + x184 + x90 + x67 + x157 + x5 + x166 >= 1;
r775: x185 + x53 + x200 + x132 + x169 >= 1;
r776: x41 + x58 + x71 + x115 + x194 + x173 + x48 + x81 >= 1;
r777: x10 + x144 + x89 + x103 + x36 + x122 >= 1;
r778: x26 + x151 + x78 + x12 + x171 + x51 + x2 >= 1;
r779: x98 + x198 + x194 + x132 >= 1;
r780: x171 + x54 + x64 + x130 + x161 + x181 + x78 >= 1;
r781: x118 + x94 + x146 + x53 + x172 + x20 + x74 + x42 >= 1;
r782: x50 + x112 + x20 + x6 + x192 + x19 >= 1;
r783: x56 + x37 + x106 + x68 + x54 >= 1;
r784: x55 + x107 + x69 >= 1;
r785: x160 + x99 + x46 + x17 + x161 + x55 + x49 >= 1;
r786: x45 + x96 + x141 + x158 + x133 >= 1;
r787: x35 + x108 + x66 + x44 >= 1;
r788: x97 + x12 + x183 >= 1;
r789: x182 + x67 + x133 >= 1;
r790: x10 + x104 + x75 + x120 + x28 + x68 + x30 >= 1;
r791: x122 + x58 + x124 + x99 + x42 + x199 >= 1;
r792: x39 + x104 + x195 + x167 + x78 >= 1;
r793: x128 + x178 + x189 + x38 + x63 + x120 + x33 >= 1;
r794: x179 >= 1;
r795: x45 >= 1;
r796: x46 + x94 + x90 + x59 + x149 + x185 + x28 >= 1;
r797: x126 + x9 + x57 + x121 + x148 + x71 + x109 >= 1;
r798: x47 + x149 + x156 + x98 + x15 >= 1;
r799: x30 + x159 + x2 >= 1;
r800: x63 + x165 + x60 >= 1;

bin x1, x2, x3, x4, x5, x6, x7, x8, x9, x10, x11, x12, x13, x14, x15, x16, x17, x18, x19, x20, x21, x22, x23, x24, x25, x26, x27, x28, x29, x30, x31, x32, x33, x34, x35, x36, x37, x38, x39, x40, x41, x42, x43, x44, x45, x46, x47, x48, x49, x50, x51, x52, x53, x54, x55, x56, x57, x58, x59, x60, x61, x62, x63, x64, x65, x66, x67, x68, x69, x70, x71, x72, x73, x74, x75, x76, x77, x78, x79, x80, x81, x82, x83, x84, x85, x86, x87, x88, x89, x90, x91, x92, x93, x94, x95, x96, x97, x98, x99, x100, x101, x102, x103, x104, x105, x106, x107, x108, x109, x110, x111, x112, x113, x114, x115, x116, x117, x118, x119, x120, x121, x122, x123, x124, x125, x126, x127, x128, x129, x130, x131, x132, x133, x134, x135, x136, x137, x138, x139, x140, x141, x142, x143, x144, x145, x146, x147, x148, x149, x150, x151, x152, x153, x154, x155, x156, x157, x158, x159, x160, x161, x162, x163, x164, x165, x166, x167, x168, x169, x170, x171, x172, x173, x174, x175, x176, x177, x178, x179, x180, x181, x182, x183, x184, x185, x186, x187, x188, x189, x190, x191, x192, x193, x194, x195, x196, x197, x198, x199, x200;
